NAME /Users/henri/Research/solvers/instances/idol-instances/robust/collection/cbp_Subramanyam_et_al_2020/CapBud_N25_2/models/uncertain_technology_matrix/
ROWS
 N  OBJ
 L  capacity
 L  c_3615
 L  c_3616
 L  c_3617
 L  c_3618
 L  c_3619
 L  c_3620
 L  c_3621
 L  c_3622
 L  c_3623
 L  c_3624
 L  c_3625
 L  c_3626
 L  c_3627
 L  c_3628
 L  c_3629
 L  c_3630
 L  c_3631
 L  c_3632
 L  c_3633
 L  c_3634
 L  c_3635
 L  c_3636
 L  c_3637
 L  c_3638
 L  c_3639
COLUMNS
    MARKER    'MARKER'                 'INTORG'
    x_0        OBJ        -6.97171
    x_0        c_3615     1
    x_0        capacity   1.39434
    x_1        OBJ        -3.34133
    x_1        c_3616     1
    x_1        capacity   0.668267
    x_2        OBJ        -1.83969
    x_2        c_3617     1
    x_2        capacity   0.367938
    x_3        OBJ        -9.19221
    x_3        c_3618     1
    x_3        capacity   1.83844
    x_4        OBJ        -6.68264
    x_4        c_3619     1
    x_4        capacity   1.33653
    x_5        OBJ        -0.607418
    x_5        c_3620     1
    x_5        capacity   0.121484
    x_6        OBJ        -8.77273
    x_6        c_3621     1
    x_6        capacity   1.75455
    x_7        OBJ        -9.67609
    x_7        c_3622     1
    x_7        capacity   1.93522
    x_8        OBJ        -4.5078
    x_8        c_3623     1
    x_8        capacity   0.90156
    x_9        OBJ        -9.85884
    x_9        c_3624     1
    x_9        capacity   1.97177
    x_10       OBJ        -9.78686
    x_10       c_3625     1
    x_10       capacity   1.95737
    x_11       OBJ        -3.24611
    x_11       c_3626     1
    x_11       capacity   0.649222
    x_12       OBJ        -9.22847
    x_12       c_3627     1
    x_12       capacity   1.84569
    x_13       OBJ        -9.7624
    x_13       c_3628     1
    x_13       capacity   1.95248
    x_14       OBJ        -7.11121
    x_14       c_3629     1
    x_14       capacity   1.42224
    x_15       OBJ        -6.3568
    x_15       c_3630     1
    x_15       capacity   1.27136
    x_16       OBJ        -3.57843
    x_16       c_3631     1
    x_16       capacity   0.715686
    x_17       OBJ        -7.46975
    x_17       c_3632     1
    x_17       capacity   1.49395
    x_18       OBJ        -9.06325
    x_18       c_3633     1
    x_18       capacity   1.81265
    x_19       OBJ        -5.62006
    x_19       c_3634     1
    x_19       capacity   1.12401
    x_20       OBJ        -9.76735
    x_20       c_3635     1
    x_20       capacity   1.95347
    x_21       OBJ        -1.92987
    x_21       c_3636     1
    x_21       capacity   0.385973
    x_22       OBJ        -6.98481
    x_22       c_3637     1
    x_22       capacity   1.39696
    x_23       OBJ        -0.916825
    x_23       c_3638     1
    x_23       capacity   0.183365
    x_24       OBJ        -0.514797
    x_24       c_3639     1
    x_24       capacity   0.102959
    y_0        OBJ        -5.57736
    y_0        c_3615     1
    y_0        capacity   1.39434
    y_1        OBJ        -2.67307
    y_1        c_3616     1
    y_1        capacity   0.668267
    y_2        OBJ        -1.47175
    y_2        c_3617     1
    y_2        capacity   0.367938
    y_3        OBJ        -7.35377
    y_3        c_3618     1
    y_3        capacity   1.83844
    y_4        OBJ        -5.34612
    y_4        c_3619     1
    y_4        capacity   1.33653
    y_5        OBJ        -0.485935
    y_5        c_3620     1
    y_5        capacity   0.121484
    y_6        OBJ        -7.01818
    y_6        c_3621     1
    y_6        capacity   1.75455
    y_7        OBJ        -7.74087
    y_7        c_3622     1
    y_7        capacity   1.93522
    y_8        OBJ        -3.60624
    y_8        c_3623     1
    y_8        capacity   0.90156
    y_9        OBJ        -7.88707
    y_9        c_3624     1
    y_9        capacity   1.97177
    y_10       OBJ        -7.82949
    y_10       c_3625     1
    y_10       capacity   1.95737
    y_11       OBJ        -2.59689
    y_11       c_3626     1
    y_11       capacity   0.649222
    y_12       OBJ        -7.38278
    y_12       c_3627     1
    y_12       capacity   1.84569
    y_13       OBJ        -7.80992
    y_13       c_3628     1
    y_13       capacity   1.95248
    y_14       OBJ        -5.68897
    y_14       c_3629     1
    y_14       capacity   1.42224
    y_15       OBJ        -5.08544
    y_15       c_3630     1
    y_15       capacity   1.27136
    y_16       OBJ        -2.86274
    y_16       c_3631     1
    y_16       capacity   0.715686
    y_17       OBJ        -5.9758
    y_17       c_3632     1
    y_17       capacity   1.49395
    y_18       OBJ        -7.2506
    y_18       c_3633     1
    y_18       capacity   1.81265
    y_19       OBJ        -4.49605
    y_19       c_3634     1
    y_19       capacity   1.12401
    y_20       OBJ        -7.81388
    y_20       c_3635     1
    y_20       capacity   1.95347
    y_21       OBJ        -1.54389
    y_21       c_3636     1
    y_21       capacity   0.385973
    y_22       OBJ        -5.58785
    y_22       c_3637     1
    y_22       capacity   1.39696
    y_23       OBJ        -0.73346
    y_23       c_3638     1
    y_23       capacity   0.183365
    y_24       OBJ        -0.411838
    y_24       c_3639     1
    y_24       capacity   0.102959
    MARKER    'MARKER'                 'INTEND'
RHS
    RHS       capacity   76.3937
    RHS       c_3615     1
    RHS       c_3616     1
    RHS       c_3617     1
    RHS       c_3618     1
    RHS       c_3619     1
    RHS       c_3620     1
    RHS       c_3621     1
    RHS       c_3622     1
    RHS       c_3623     1
    RHS       c_3624     1
    RHS       c_3625     1
    RHS       c_3626     1
    RHS       c_3627     1
    RHS       c_3628     1
    RHS       c_3629     1
    RHS       c_3630     1
    RHS       c_3631     1
    RHS       c_3632     1
    RHS       c_3633     1
    RHS       c_3634     1
    RHS       c_3635     1
    RHS       c_3636     1
    RHS       c_3637     1
    RHS       c_3638     1
    RHS       c_3639     1
BOUNDS
 LI BND       x_0        0
 UI BND       x_0        1
 LI BND       x_1        0
 UI BND       x_1        1
 LI BND       x_2        0
 UI BND       x_2        1
 LI BND       x_3        0
 UI BND       x_3        1
 LI BND       x_4        0
 UI BND       x_4        1
 LI BND       x_5        0
 UI BND       x_5        1
 LI BND       x_6        0
 UI BND       x_6        1
 LI BND       x_7        0
 UI BND       x_7        1
 LI BND       x_8        0
 UI BND       x_8        1
 LI BND       x_9        0
 UI BND       x_9        1
 LI BND       x_10       0
 UI BND       x_10       1
 LI BND       x_11       0
 UI BND       x_11       1
 LI BND       x_12       0
 UI BND       x_12       1
 LI BND       x_13       0
 UI BND       x_13       1
 LI BND       x_14       0
 UI BND       x_14       1
 LI BND       x_15       0
 UI BND       x_15       1
 LI BND       x_16       0
 UI BND       x_16       1
 LI BND       x_17       0
 UI BND       x_17       1
 LI BND       x_18       0
 UI BND       x_18       1
 LI BND       x_19       0
 UI BND       x_19       1
 LI BND       x_20       0
 UI BND       x_20       1
 LI BND       x_21       0
 UI BND       x_21       1
 LI BND       x_22       0
 UI BND       x_22       1
 LI BND       x_23       0
 UI BND       x_23       1
 LI BND       x_24       0
 UI BND       x_24       1
 LI BND       y_0        0
 UI BND       y_0        1
 LI BND       y_1        0
 UI BND       y_1        1
 LI BND       y_2        0
 UI BND       y_2        1
 LI BND       y_3        0
 UI BND       y_3        1
 LI BND       y_4        0
 UI BND       y_4        1
 LI BND       y_5        0
 UI BND       y_5        1
 LI BND       y_6        0
 UI BND       y_6        1
 LI BND       y_7        0
 UI BND       y_7        1
 LI BND       y_8        0
 UI BND       y_8        1
 LI BND       y_9        0
 UI BND       y_9        1
 LI BND       y_10       0
 UI BND       y_10       1
 LI BND       y_11       0
 UI BND       y_11       1
 LI BND       y_12       0
 UI BND       y_12       1
 LI BND       y_13       0
 UI BND       y_13       1
 LI BND       y_14       0
 UI BND       y_14       1
 LI BND       y_15       0
 UI BND       y_15       1
 LI BND       y_16       0
 UI BND       y_16       1
 LI BND       y_17       0
 UI BND       y_17       1
 LI BND       y_18       0
 UI BND       y_18       1
 LI BND       y_19       0
 UI BND       y_19       1
 LI BND       y_20       0
 UI BND       y_20       1
 LI BND       y_21       0
 UI BND       y_21       1
 LI BND       y_22       0
 UI BND       y_22       1
 LI BND       y_23       0
 UI BND       y_23       1
 LI BND       y_24       0
 UI BND       y_24       1
ENDATA
